NAME
* Written by MOSEK version 6.0.0.137
OBJSENSE
    MIN
ROWS
 N  obj
 E  c1
 E  c2
 E  c3
 E  c4
 E  c5
 E  c6
 E  c7
 E  c8
 E  c9
 E  c10
 E  c11
 E  c12
 E  c13
 E  c14
 E  c15
 E  c16
 E  c17
 E  c18
 E  c19
 E  c20
 E  c21
 E  c22
 E  c23
 E  c24
 E  c25
 E  c26
 E  c27
 E  c28
 E  c29
 E  c30
 E  c31
 E  c32
COLUMNS
    x1        obj       61
    x1        c1        1
    x1        c2        2
    x1        c31       6
    x1        c32       4
    x2        obj       18
    x2        c2        2
    x2        c32       3
    x3        obj       14
    x3        c2        1
    x3        c32       6
    x4        obj       70
    x4        c3        1
    x4        c4        2
    x4        c31       6
    x4        c32       6
    x5        obj       48
    x5        c4        8
    x5        c32       2
    x6        obj       46
    x6        c4        6
    x6        c32       5
    x7        obj       97
    x7        c5        1
    x7        c6        7
    x7        c31       7
    x7        c32       4
    x8        obj       33
    x8        c6        5
    x8        c32       2
    x9        obj       22
    x9        c6        3
    x9        c32       3
    x10       obj       45
    x10       c7        1
    x10       c8        2
    x10       c31       2
    x10       c32       5
    x11       obj       53
    x11       c8        6
    x11       c32       7
    x12       obj       39
    x12       c8        5
    x12       c32       5
    x13       obj       86
    x13       c9        1
    x13       c10       6
    x13       c31       5
    x13       c32       6
    x14       obj       27
    x14       c10       3
    x14       c32       3
    x15       obj       68
    x15       c10       10
    x15       c32       4
    x16       obj       61
    x16       c11       1
    x16       c12       6
    x16       c31       4
    x16       c32       3
    x17       obj       38
    x17       c12       8
    x17       c32       4
    x18       obj       27
    x18       c12       4
    x18       c32       5
    x19       obj       88
    x19       c13       1
    x19       c14       6
    x19       c31       7
    x19       c32       8
    x20       obj       38
    x20       c14       7
    x20       c32       1
    x21       obj       38
    x21       c14       6
    x21       c32       5
    x22       obj       69
    x22       c15       1
    x22       c16       6
    x22       c31       5
    x22       c32       9
    x23       obj       36
    x23       c16       9
    x23       c32       7
    x24       obj       26
    x24       c16       4
    x24       c32       6
    x25       obj       92
    x25       c17       1
    x25       c18       6
    x25       c31       5
    x25       c32       5
    x26       obj       89
    x26       c18       11
    x26       c32       5
    x27       obj       45
    x27       c18       5
    x27       c32       5
    x28       obj       1.15e+02
    x28       c19       1
    x28       c20       8
    x28       c31       7
    x28       c32       2
    x29       obj       55
    x29       c20       6
    x29       c32       7
    x30       obj       20
    x30       c20       2
    x30       c32       2
    x31       obj       1.04e+02
    x31       c21       1
    x31       c22       8
    x31       c31       7
    x31       c32       3
    x32       obj       53
    x32       c22       7
    x32       c32       7
    x33       obj       60
    x33       c22       9
    x33       c32       3
    x34       obj       63
    x34       c23       1
    x34       c24       6
    x34       c31       2
    x34       c32       3
    x35       obj       27
    x35       c24       3
    x35       c32       7
    x36       obj       34
    x36       c24       4
    x36       c32       4
    x37       obj       93
    x37       c25       1
    x37       c26       7
    x37       c31       10
    x37       c32       3
    x38       obj       21
    x38       c26       4
    x38       c32       6
    x39       obj       32
    x39       c26       8
    x39       c32       5
    x40       obj       1.15e+02
    x40       c27       1
    x40       c28       11
    x40       c31       5
    x40       c32       2
    x41       obj       62
    x41       c28       9
    x41       c32       5
    x42       obj       59
    x42       c28       8
    x42       c32       4
    x43       obj       1.08e+02
    x43       c29       1
    x43       c30       6
    x43       c31       8
    x43       c32       3
    x44       obj       25
    x44       c30       2
    x44       c32       4
    x45       obj       29
    x45       c30       3
    x45       c32       4
RHS
    rhs       c1        6
    rhs       c2        22
    rhs       c3        12
    rhs       c4        1.24e+02
    rhs       c5        7
    rhs       c6        85
    rhs       c7        10
    rhs       c8        83
    rhs       c9        7
    rhs       c10       97
    rhs       c11       8
    rhs       c12       96
    rhs       c13       10
    rhs       c14       1.37e+02
    rhs       c15       8
    rhs       c16       1.08e+02
    rhs       c17       12
    rhs       c18       1.94e+02
    rhs       c19       7
    rhs       c20       84
    rhs       c21       8
    rhs       c22       1.34e+02
    rhs       c23       10
    rhs       c24       1.05e+02
    rhs       c25       10
    rhs       c26       1.5e+02
    rhs       c27       7
    rhs       c28       1.44e+02
    rhs       c29       8
    rhs       c30       69
    rhs       c31       7.38e+02
    rhs       c32       1.261e+03
RANGES
BOUNDS
 LI bound     x1        0
 LI bound     x2        0
 FR bound     x3
 LI bound     x4        0
 LI bound     x5        0
 FR bound     x6
 LI bound     x7        0
 LI bound     x8        0
 FR bound     x9
 LI bound     x10       0
 LI bound     x11       0
 FR bound     x12
 LI bound     x13       0
 LI bound     x14       0
 FR bound     x15
 LI bound     x16       0
 LI bound     x17       0
 FR bound     x18
 LI bound     x19       0
 LI bound     x20       0
 FR bound     x21
 LI bound     x22       0
 LI bound     x23       0
 FR bound     x24
 LI bound     x25       0
 LI bound     x26       0
 FR bound     x27
 LI bound     x28       0
 LI bound     x29       0
 FR bound     x30
 LI bound     x31       0
 LI bound     x32       0
 FR bound     x33
 LI bound     x34       0
 LI bound     x35       0
 FR bound     x36
 LI bound     x37       0
 LI bound     x38       0
 FR bound     x39
 LI bound     x40       0
 LI bound     x41       0
 FR bound     x42
 LI bound     x43       0
 LI bound     x44       0
 FR bound     x45
CSECTION      k1        0              QUAD
    x1
    x2
    x3
CSECTION      k2        0              QUAD
    x4
    x5
    x6
CSECTION      k3        0              QUAD
    x7
    x8
    x9
CSECTION      k4        0              QUAD
    x10
    x11
    x12
CSECTION      k5        0              QUAD
    x13
    x14
    x15
CSECTION      k6        0              QUAD
    x16
    x17
    x18
CSECTION      k7        0              QUAD
    x19
    x20
    x21
CSECTION      k8        0              QUAD
    x22
    x23
    x24
CSECTION      k9        0              QUAD
    x25
    x26
    x27
CSECTION      k10       0              QUAD
    x28
    x29
    x30
CSECTION      k11       0              QUAD
    x31
    x32
    x33
CSECTION      k12       0              QUAD
    x34
    x35
    x36
CSECTION      k13       0              QUAD
    x37
    x38
    x39
CSECTION      k14       0              QUAD
    x40
    x41
    x42
CSECTION      k15       0              QUAD
    x43
    x44
    x45
ENDATA
